
  32   50
   8   13   10    8    9    7    7    2   11   22    9   17   15    9    3   13   17   15    2   12    8    9   16    8   10    9    9    1    7   11    5    9    0    0    0    0    0    0    0    0    0    0    0    0    0    0    0    0    0    0

   0   0   0   0   0   0   0   0   0   0   0   0   0   0   0   0   0   0   0   0   0   0   0   0   0   0   0   0   0   0   0   0   0   0   0   0   0   0   0   0   0   0   0   0   0   0   0   0   0   0   0   7 2 3 4 5 6 11 12 
   5   0   0   0   0   0   0   0   0   6   0   0   0   0   0   0   1   0   0   0   0   1   0   0   0   0   0   8   0   0   0   0   0   0   0   0   0   0   0   0   0   0   0   0   0   0   0   0   0   0   0   7 29 28 24 23 21 15 8 
   6   0   0   0   0   0   3   0   0   0   0   0   0   0   4   0   8   9   0   0   0   0   0   0   0   5   0   0   0   0   0   0   0   0   0   0   0   0   0   0   0   0   0   0   0   0   0   0   0   0   0   5 30 18 17 13 7 
   1   0   0   0   0   0   0   0   0   0   0   0   0   0   0   0   3   0   5   0   0   0   8   0   0   0   2   0   0   0   0   0   0   0   0   0   0   0   0   0   0   0   0   0   0   0   0   0   0   0   0   9 30 29 28 24 23 21 18 15 13 
   5   0   0   0   0   0   0   0   0   0   0   3   0   8   0   0   0   7   1   0   0   0   0   0   7   0   0   0   0   0   0   0   0   0   0   0   0   0   0   0   0   0   0   0   0   0   0   0   0   0   0   7 31 29 28 23 21 16 13 
   6   0   0   0   0   0   0   0   0   0   0   0   0   0   0   0   0   0   0   0   2   0   1   0   0   0   8   0   0   0   8   5   0   0   0   0   0   0   0   0   0   0   0   0   0   0   0   0   0   0   0   6 24 23 22 20 19 10 
   5   0   0   0   0   4   0   0   0   0   5   0   0   0   0   0   0   0   0   0   5   0   1   0   0   0   0   0   0   0   0   0   0   0   0   0   0   0   0   0   0   0   0   0   0   0   0   0   0   0   0   6 31 29 28 23 22 20 
   3   0   0   0   0   0   2   0   2   0   0   0   0   0   0   0   0   0   0   0   0   0   0   1   0   0   0   0   0   0   0   0   0   0   0   0   0   0   0   0   0   0   0   0   0   0   0   0   0   0   0   2 30 9 
   4   0   0   0   0   0   1   0   0   0   9   0   0   0   0   0   0   0   0   0   0   0   0   0   0   5   0   0   0   0   1   0   0   0   0   0   0   0   0   0   0   0   0   0   0   0   0   0   0   0   0   3 27 22 14 
   9   0   0   0   0   0   0   0   1   0   0   0   0   0   0   0   0   2   5   0   0   8   0   0   0   0   0   0   0   0   0   0   0   0   0   0   0   0   0   0   0   0   0   0   0   0   0   0   0   0   0   4 31 28 27 21 
  10   0   0   0   0   1   0   0   0   0   9   0   0   0   0   0   0   0  10   0   0   1   2   0   0   0   0   0   0   0   5   0   0   0   0   0   0   0   0   0   0   0   0   0   0   0   0   0   0   0   0   3 29 21 20 
   3   0   0   0   0   0   0   0   0   0   0   0   0  10   0   0   0   0   0   0   0   0   0   7   0   0   0   0   0   0   0   0   0   0   0   0   0   0   0   0   0   0   0   0   0   0   0   0   0   0   0   4 31 27 26 25 
   5   0   0   0   0   1   0   0   0   0   0   0  10   1   0   0   0  10   0   0   0   0   3   0   0   0   0   0   0   4   0   0   0   0   0   0   0   0   0   0   0   0   0   0   0   0   0   0   0   0   0   2 27 22 
   6   0   0   0   4   0   0   0   0   0   6   0   0   8   0   0   7   2   0   0   0   0   0   0   0   0   0   0   0   0   7   0   5   0   0   0   0   0   0   0   0   0   0   0   0   0   0   0   0   0   0   2 25 20 
   8   0   3   0   6   0   0   0   0   0   0   0   0   0   7   0   0   0   0   0   0   0   0  10   0   0   0   0   0   0   0   0   0   0   0   0   0   0   0   0   0   0   0   0   0   0   0   0   0   0   0   2 25 20 
   5   0   0   0   0   0   0   0   0   4   0   0   4   0   0   0   0   0   0   0   3   0   0   9   0   0   0   0   0   0   0   0   0   0   0   0   0   0   0   0   0   0   0   0   0   0   0   0   0   0   0   2 30 20 
   2   0   4   0   0   0   0   0   0   2   0   0   8   0   0   0   9   0   3   2   0   0   0   0   0   0   0   8   0   0   0   0   0   0   0   0   0   0   0   0   0   0   0   0   0   0   0   0   0   0   0   2 26 21 
   4   0   0   1   0   0   0   0   0   0   0   1   0   0   0   0   0  10   0   0   6   0   0   0   0   0   0   0   0   0   0   0   5   0   0   0   0   0   0   0   0   0   0   0   0   0   0   0   0   0   0   2 27 25 
   8   8   0   0   0   0   0   4   0   2   7   0   0   0   0   0   0   0   0   0   0   0   0   0   0   0   0   1   0   0   0   0   0   0   0   0   0   0   0   0   0   0   0   0   0   0   0   0   0   0   0   1 21 
   7   0   0   0   0   0   0   0   0   7   0   7   0   0   4   0   0   0   0   0   9   0   0   0   0   0   0   0   0   7   0   0   0   0   0   0   0   0   0   0   0   0   0   0   0   0   0   0   0   0   0   1 26 
   9   0   0  10   0   0   0   0   0   0   3   0   7   6   0   0   0   0   0   0   0   0   0   0   0   0   0   9   0   0   0   0   0   0   0   0   0   0   0   0   0   0   0   0   0   0   0   0   0   0   0   1 25 
   5   0   0   0   0   3   7   0   0   0   0   0   0   0   0   0   9   0   2   0   0   0   0   0   0   0   0   0   0   0   0   0   0   0   0   0   0   0   0   0   0   0   0   0   0   0   0   0   0   0   0   1 25 
   1   0   0   2   0   0   0   0   2   0   0   0   0   0   0   0   0   0   0   0   0   0   0   0   0   1   0   0   0   0   9   0   0   0   0   0   0   0   0   0   0   0   0   0   0   0   0   0   0   0   0   1 27 
   4   0   9   0   3   0   0   0   0   0   0   0   0   0   0   0   0   0   0   0   0   0   0   0   0   0   0   0   0   0   0   0   0   0   0   0   0   0   0   0   0   0   0   0   0   0   0   0   0   0   0   1 26 
   3   0   9   0   0   0   0   7   0   7   0   4   0   0   0   0   4   0   1   0   0   0   0   0   8   0   0   0   0   0   0   0   0   0   0   0   0   0   0   0   0   0   0   0   0   0   0   0   0   0   0   1 32
   7   0   0   0   0   0   0   0   0   0   0   0   0   0   0   0   0   0   0   0   3   0   0   0   0   0   0   0   0   0   7   0   0   0   0   0   0   0   0   0   0   0   0   0   0   0   0   0   0   0   0   1 32
   3   0   0   0   0   0   0   0   0   0   0   0   0   0   0   0   0   0   0   0   0   0   0   0   0   0   0   0   0   0   0   0   0   0   0   0   0   0   0   0   0   0   0   0   0   0   0   0   0   0   0   1 32
  10   0   0   0   0   8   0   0   0   0   0   0   0   0   0   3   0   0   0   0   0   0   0   1   0   0   0   0   0   0   0   0   0   0   0   0   0   0   0   0   0   0   0   0   0   0   0   0   0   0   0   1 32
   4   0   0   5   0   0   0   0   0   0   0   0   0   0   0   0   0   6   0   0   0   0   0   0   0   0   0   0   1   0   0   0   5   0   0   0   0   0   0   0   0   0   0   0   0   0   0   0   0   0   0   1 32
   5   0   0   2   0   0   0   0   0   0   0   0   0   0   0   0   0   0   5   0   1   0   0   0   0   7   0   0   0   0   0   0   0   0   0   0   0   0   0   0   0   0   0   0   0   0   0   0   0   0   0   1 32
   8   2   1   0   0   0   0   0   0   0   0   0   0   0   0   0   0  10   0   0   0   0   0   0   0   0   0   0   0   0   0   0   6   0   0   0   0   0   0   0   0   0   0   0   0   0   0   0   0   0   0   1 32
   0   0   0   0   0   0   0   0   0   0   0   0   0   0   0   0   0   0   0   0   0   0   0   0   0   0   0   0   0   0   0   0   0   0   0   0   0   0   0   0   0   0   0   0   0   0   0   0   0   0   0   0 
